12 30
1 4 10 11
3 5 7 8
3 8 9 11
5 7 9 11
3 5 10 12
1 8 10 12
2 3 6 12
1 3 8 11
5 6 8 11
4 6 8 12
1 3 7 11
1 3 4 6
1 3 7 12
4 5 9 10
3 8 9 12
1 8 9 12
3 6 9 12
2 8 9 10
3 5 10 12
1 6 8 10
1 6 9 12
3 6 7 9
2 3 7 11
2 8 10 12
1 9 11 12
2 4 8 10
5 10 11 12
3 4 7 10
5 8 11 12
1 5 6 10
8 4 6 5 6 8 7 6 4 5 6 6 8 4 8 4 6 8 5 5 5 7 6 5 8 5 5 4 8 7
